n_machines = 5;
n_resources = 6;
n_jobs = 30;
horizon = 164;
LB = 36;
n_jobs_per_resource = [5, 5, 5, 5, 5, 5];
duration = [3, 4, 3, 1, 7, 5, 4, 9, 6, 4, 7, 4, 9, 9, 7, 5, 2, 5, 9, 3, 4, 8, 3, 9, 8, 6, 8, 5, 2, 5]